num_offers = 35;
num_halls = 10;
start=[67,78,51,65,18,21,69,29,16,3,8,21,46,39,1,16,59,10,50,6,11,8,20,75,10,54,68,2,43,34,41,69,22,19,18];
end=[74,94,95,100,79,82,87,84,79,25,91,38,71,73,40,50,75,76,58,12,40,95,53,95,74,75,82,61,86,69,87,92,27,87,45];
price=[532,1058,3631,2563,690,3833,938,3048,6239,1952,4604,700,1680,3297,3385,1807,995,2436,307,631,2822,1370,1184,1087,2446,685,897,1669,3036,2293,684,2152,551,1905,2175];
requirement=[469,826,439,864,992,244,240,539,791,519,959,926,886,691,399,845,991,840,286,900,997,443,399,969,484,315,899,231,778,609,834,411,458,317,437];
capacity=[712,999,923,458,936,527,577,353,696,218];
